NAME 
OBJSENSE MAX
ROWS
 N  OBJ
 L  packing[0]
 L  packing[1]
 L  packing[2]
 L  packing[3]
 L  packing[4]
 L  packing[5]
 L  packing[6]
 L  packing[7]
 L  packing[8]
 L  packing[9]
 L  packing[10]
 L  packing[11]
 L  packing[12]
 L  packing[13]
 L  packing[14]
 L  packing[15]
 L  packing[16]
 L  packing[17]
 L  packing[18]
 L  packing[19]
 L  packing[20]
 L  packing[21]
 L  packing[22]
 L  packing[23]
 L  packing[24]
 L  packing[25]
 L  packing[26]
 L  packing[27]
 L  packing[28]
 L  packing[29]
 L  packing[30]
 L  packing[31]
 L  packing[32]
 L  packing[33]
 L  packing[34]
 L  packing[35]
 L  packing[36]
 L  packing[37]
 L  packing[38]
 L  packing[39]
 L  packing[40]
 L  packing[41]
 L  packing[42]
 L  packing[43]
 L  packing[44]
 L  packing[45]
 L  packing[46]
 L  packing[47]
 L  packing[48]
 L  packing[49]
 L  R55     
COLUMNS
    MARKER    'MARKER'                 'INTORG'
    x[1]      OBJ       57
    x[1]      packing[0]  17
    x[1]      packing[1]  27
    x[1]      packing[2]  99
    x[1]      packing[3]  136
    x[1]      packing[6]  71
    x[1]      packing[7]  150
    x[1]      packing[9]  140
    x[1]      packing[10]  62
    x[1]      packing[11]  105
    x[1]      packing[15]  176
    x[1]      packing[16]  92
    x[1]      packing[18]  81
    x[1]      packing[22]  165
    x[1]      packing[23]  107
    x[1]      packing[24]  190
    x[1]      packing[27]  33
    x[1]      packing[28]  37
    x[1]      packing[29]  100
    x[1]      packing[30]  177
    x[1]      packing[32]  146
    x[1]      packing[33]  34
    x[1]      packing[34]  137
    x[1]      packing[35]  123
    x[1]      packing[36]  132
    x[1]      packing[37]  22
    x[1]      packing[38]  21
    x[1]      packing[39]  58
    x[1]      packing[41]  167
    x[1]      packing[44]  83
    x[1]      packing[45]  186
    x[1]      packing[47]  89
    x[1]      packing[48]  164
    x[1]      packing[49]  82
    x[2]      OBJ       55
    x[2]      packing[1]  79
    x[2]      packing[2]  40
    x[2]      packing[3]  72
    x[2]      packing[4]  113
    x[2]      packing[5]  20
    x[2]      packing[7]  105
    x[2]      packing[8]  42
    x[2]      packing[9]  119
    x[2]      packing[11]  37
    x[2]      packing[14]  147
    x[2]      packing[16]  185
    x[2]      packing[17]  11
    x[2]      packing[19]  184
    x[2]      packing[20]  41
    x[2]      packing[21]  122
    x[2]      packing[23]  75
    x[2]      packing[24]  143
    x[2]      packing[25]  39
    x[2]      packing[27]  125
    x[2]      packing[28]  125
    x[2]      packing[29]  171
    x[2]      packing[30]  64
    x[2]      packing[31]  181
    x[2]      packing[32]  168
    x[2]      packing[33]  3
    x[2]      packing[34]  196
    x[2]      packing[35]  107
    x[2]      packing[37]  185
    x[2]      packing[39]  62
    x[2]      packing[41]  128
    x[2]      packing[42]  48
    x[2]      packing[43]  27
    x[2]      packing[45]  55
    x[2]      packing[46]  106
    x[3]      OBJ       70
    x[3]      packing[0]  149
    x[3]      packing[1]  5
    x[3]      packing[2]  123
    x[3]      packing[3]  44
    x[3]      packing[4]  27
    x[3]      packing[6]  185
    x[3]      packing[7]  48
    x[3]      packing[9]  56
    x[3]      packing[11]  59
    x[3]      packing[12]  90
    x[3]      packing[13]  35
    x[3]      packing[16]  47
    x[3]      packing[17]  16
    x[3]      packing[18]  56
    x[3]      packing[19]  98
    x[3]      packing[21]  109
    x[3]      packing[23]  162
    x[3]      packing[24]  145
    x[3]      packing[25]  135
    x[3]      packing[26]  123
    x[3]      packing[28]  124
    x[3]      packing[29]  81
    x[3]      packing[30]  1
    x[3]      packing[31]  159
    x[3]      packing[32]  117
    x[3]      packing[33]  101
    x[3]      packing[35]  33
    x[3]      packing[36]  124
    x[3]      packing[37]  165
    x[3]      packing[38]  178
    x[3]      packing[39]  37
    x[3]      packing[40]  109
    x[3]      packing[41]  15
    x[3]      packing[42]  134
    x[3]      packing[45]  188
    x[3]      packing[46]  4
    x[3]      packing[47]  134
    x[3]      packing[48]  87
    x[3]      packing[49]  14
    x[3]      R55       1
    x[4]      OBJ       110
    x[4]      packing[2]  6
    x[4]      packing[3]  29
    x[4]      packing[4]  165
    x[4]      packing[5]  115
    x[4]      packing[6]  181
    x[4]      packing[7]  121
    x[4]      packing[8]  58
    x[4]      packing[9]  111
    x[4]      packing[10]  18
    x[4]      packing[13]  145
    x[4]      packing[14]  78
    x[4]      packing[18]  57
    x[4]      packing[19]  55
    x[4]      packing[21]  7
    x[4]      packing[22]  31
    x[4]      packing[23]  8
    x[4]      packing[25]  117
    x[4]      packing[26]  74
    x[4]      packing[27]  193
    x[4]      packing[28]  34
    x[4]      packing[30]  170
    x[4]      packing[31]  123
    x[4]      packing[32]  90
    x[4]      packing[34]  112
    x[4]      packing[35]  131
    x[4]      packing[37]  121
    x[4]      packing[40]  194
    x[4]      packing[42]  126
    x[4]      packing[43]  143
    x[4]      packing[44]  164
    x[4]      packing[46]  122
    x[4]      packing[47]  142
    x[4]      packing[48]  161
    x[4]      packing[49]  93
    x[5]      OBJ       88
    x[5]      packing[0]  119
    x[5]      packing[3]  64
    x[5]      packing[4]  151
    x[5]      packing[6]  120
    x[5]      packing[7]  185
    x[5]      packing[8]  97
    x[5]      packing[9]  28
    x[5]      packing[10]  106
    x[5]      packing[11]  63
    x[5]      packing[12]  142
    x[5]      packing[13]  1
    x[5]      packing[14]  104
    x[5]      packing[17]  33
    x[5]      packing[18]  92
    x[5]      packing[19]  117
    x[5]      packing[20]  171
    x[5]      packing[21]  42
    x[5]      packing[22]  41
    x[5]      packing[23]  122
    x[5]      packing[26]  112
    x[5]      packing[27]  117
    x[5]      packing[28]  152
    x[5]      packing[29]  176
    x[5]      packing[30]  100
    x[5]      packing[31]  60
    x[5]      packing[33]  191
    x[5]      packing[35]  30
    x[5]      packing[36]  131
    x[5]      packing[38]  147
    x[5]      packing[40]  16
    x[5]      packing[41]  111
    x[5]      packing[42]  178
    x[5]      packing[46]  129
    x[5]      packing[47]  83
    x[5]      packing[48]  150
    x[6]      OBJ       114
    x[6]      packing[1]  74
    x[6]      packing[2]  164
    x[6]      packing[3]  47
    x[6]      packing[4]  46
    x[6]      packing[5]  8
    x[6]      packing[6]  183
    x[6]      packing[8]  171
    x[6]      packing[11]  186
    x[6]      packing[12]  66
    x[6]      packing[13]  94
    x[6]      packing[14]  153
    x[6]      packing[15]  51
    x[6]      packing[16]  179
    x[6]      packing[18]  19
    x[6]      packing[19]  166
    x[6]      packing[20]  97
    x[6]      packing[21]  91
    x[6]      packing[22]  173
    x[6]      packing[25]  194
    x[6]      packing[26]  129
    x[6]      packing[28]  59
    x[6]      packing[29]  176
    x[6]      packing[31]  17
    x[6]      packing[32]  129
    x[6]      packing[33]  8
    x[6]      packing[34]  38
    x[6]      packing[35]  112
    x[6]      packing[36]  54
    x[6]      packing[37]  44
    x[6]      packing[38]  144
    x[6]      packing[39]  104
    x[6]      packing[40]  70
    x[6]      packing[41]  157
    x[6]      packing[42]  53
    x[6]      packing[43]  118
    x[6]      packing[44]  188
    x[6]      packing[46]  64
    x[6]      packing[47]  134
    x[6]      packing[49]  106
    x[6]      R55       1
    x[7]      OBJ       109
    x[7]      packing[0]  133
    x[7]      packing[1]  15
    x[7]      packing[2]  59
    x[7]      packing[3]  104
    x[7]      packing[4]  13
    x[7]      packing[5]  118
    x[7]      packing[6]  157
    x[7]      packing[7]  29
    x[7]      packing[8]  97
    x[7]      packing[9]  40
    x[7]      packing[11]  21
    x[7]      packing[12]  180
    x[7]      packing[13]  152
    x[7]      packing[14]  143
    x[7]      packing[15]  160
    x[7]      packing[16]  35
    x[7]      packing[18]  198
    x[7]      packing[21]  177
    x[7]      packing[22]  163
    x[7]      packing[23]  75
    x[7]      packing[24]  112
    x[7]      packing[25]  83
    x[7]      packing[27]  111
    x[7]      packing[28]  131
    x[7]      packing[29]  69
    x[7]      packing[30]  142
    x[7]      packing[31]  185
    x[7]      packing[32]  94
    x[7]      packing[33]  50
    x[7]      packing[34]  22
    x[7]      packing[35]  99
    x[7]      packing[36]  77
    x[7]      packing[38]  97
    x[7]      packing[40]  33
    x[7]      packing[43]  148
    x[7]      packing[45]  26
    x[7]      packing[46]  16
    x[7]      packing[48]  154
    x[8]      OBJ       37
    x[8]      packing[0]  130
    x[8]      packing[1]  12
    x[8]      packing[2]  46
    x[8]      packing[3]  86
    x[8]      packing[4]  157
    x[8]      packing[5]  65
    x[8]      packing[7]  130
    x[8]      packing[8]  161
    x[8]      packing[9]  138
    x[8]      packing[10]  157
    x[8]      packing[11]  145
    x[8]      packing[12]  58
    x[8]      packing[14]  19
    x[8]      packing[15]  175
    x[8]      packing[16]  8
    x[8]      packing[17]  158
    x[8]      packing[18]  178
    x[8]      packing[19]  148
    x[8]      packing[21]  173
    x[8]      packing[22]  116
    x[8]      packing[23]  24
    x[8]      packing[26]  151
    x[8]      packing[27]  175
    x[8]      packing[28]  43
    x[8]      packing[29]  10
    x[8]      packing[30]  151
    x[8]      packing[31]  186
    x[8]      packing[32]  128
    x[8]      packing[33]  41
    x[8]      packing[35]  102
    x[8]      packing[36]  120
    x[8]      packing[37]  90
    x[8]      packing[38]  105
    x[8]      packing[39]  184
    x[8]      packing[40]  169
    x[8]      packing[42]  72
    x[8]      packing[43]  130
    x[8]      packing[44]  24
    x[8]      packing[47]  13
    x[8]      packing[48]  152
    x[8]      packing[49]  13
    x[9]      OBJ       5
    x[9]      packing[0]  170
    x[9]      packing[3]  154
    x[9]      packing[4]  101
    x[9]      packing[5]  163
    x[9]      packing[6]  152
    x[9]      packing[7]  44
    x[9]      packing[9]  187
    x[9]      packing[11]  195
    x[9]      packing[12]  170
    x[9]      packing[13]  44
    x[9]      packing[14]  78
    x[9]      packing[17]  80
    x[9]      packing[18]  18
    x[9]      packing[19]  137
    x[9]      packing[21]  24
    x[9]      packing[23]  83
    x[9]      packing[24]  23
    x[9]      packing[25]  174
    x[9]      packing[26]  167
    x[9]      packing[27]  108
    x[9]      packing[28]  145
    x[9]      packing[29]  123
    x[9]      packing[30]  190
    x[9]      packing[31]  98
    x[9]      packing[32]  32
    x[9]      packing[33]  117
    x[9]      packing[34]  185
    x[9]      packing[35]  158
    x[9]      packing[36]  98
    x[9]      packing[37]  111
    x[9]      packing[38]  167
    x[9]      packing[39]  81
    x[9]      packing[42]  196
    x[9]      packing[43]  193
    x[9]      packing[44]  163
    x[9]      packing[45]  60
    x[9]      packing[46]  117
    x[9]      packing[47]  107
    x[9]      packing[48]  47
    x[9]      packing[49]  96
    x[10]     OBJ       18
    x[10]     packing[0]  126
    x[10]     packing[5]  1
    x[10]     packing[6]  33
    x[10]     packing[7]  58
    x[10]     packing[8]  101
    x[10]     packing[9]  22
    x[10]     packing[10]  24
    x[10]     packing[12]  45
    x[10]     packing[13]  101
    x[10]     packing[15]  21
    x[10]     packing[17]  190
    x[10]     packing[19]  87
    x[10]     packing[21]  68
    x[10]     packing[23]  15
    x[10]     packing[24]  33
    x[10]     packing[25]  172
    x[10]     packing[26]  53
    x[10]     packing[28]  141
    x[10]     packing[30]  108
    x[10]     packing[31]  99
    x[10]     packing[32]  60
    x[10]     packing[33]  121
    x[10]     packing[34]  93
    x[10]     packing[35]  45
    x[10]     packing[36]  62
    x[10]     packing[37]  129
    x[10]     packing[38]  153
    x[10]     packing[39]  60
    x[10]     packing[40]  120
    x[10]     packing[41]  149
    x[10]     packing[43]  100
    x[10]     packing[45]  162
    x[10]     packing[48]  170
    x[11]     OBJ       159
    x[11]     packing[0]  112
    x[11]     packing[1]  173
    x[11]     packing[2]  162
    x[11]     packing[3]  64
    x[11]     packing[4]  78
    x[11]     packing[5]  196
    x[11]     packing[6]  30
    x[11]     packing[7]  63
    x[11]     packing[8]  199
    x[11]     packing[9]  148
    x[11]     packing[10]  139
    x[11]     packing[11]  139
    x[11]     packing[12]  16
    x[11]     packing[14]  145
    x[11]     packing[15]  21
    x[11]     packing[16]  61
    x[11]     packing[17]  189
    x[11]     packing[18]  129
    x[11]     packing[19]  167
    x[11]     packing[22]  62
    x[11]     packing[23]  63
    x[11]     packing[24]  91
    x[11]     packing[25]  83
    x[11]     packing[26]  190
    x[11]     packing[28]  132
    x[11]     packing[30]  68
    x[11]     packing[31]  72
    x[11]     packing[32]  136
    x[11]     packing[33]  43
    x[11]     packing[34]  195
    x[11]     packing[35]  77
    x[11]     packing[36]  10
    x[11]     packing[38]  96
    x[11]     packing[40]  35
    x[11]     packing[41]  4
    x[11]     packing[43]  139
    x[11]     packing[44]  75
    x[11]     packing[45]  157
    x[11]     packing[46]  84
    x[11]     packing[48]  137
    x[11]     packing[49]  32
    x[11]     R55       1
    x[12]     OBJ       126
    x[12]     packing[3]  72
    x[12]     packing[4]  53
    x[12]     packing[5]  14
    x[12]     packing[8]  9
    x[12]     packing[9]  169
    x[12]     packing[12]  186
    x[12]     packing[13]  35
    x[12]     packing[14]  13
    x[12]     packing[15]  118
    x[12]     packing[16]  124
    x[12]     packing[17]  129
    x[12]     packing[18]  197
    x[12]     packing[19]  133
    x[12]     packing[23]  84
    x[12]     packing[27]  80
    x[12]     packing[29]  158
    x[12]     packing[30]  108
    x[12]     packing[33]  34
    x[12]     packing[35]  66
    x[12]     packing[36]  24
    x[12]     packing[37]  194
    x[12]     packing[38]  81
    x[12]     packing[39]  194
    x[12]     packing[41]  47
    x[12]     packing[42]  130
    x[12]     packing[43]  91
    x[12]     packing[44]  151
    x[12]     packing[45]  99
    x[12]     packing[46]  153
    x[12]     packing[48]  168
    x[12]     packing[49]  13
    x[12]     R55       1
    x[13]     OBJ       18
    x[13]     packing[0]  135
    x[13]     packing[1]  53
    x[13]     packing[2]  82
    x[13]     packing[3]  83
    x[13]     packing[4]  69
    x[13]     packing[5]  164
    x[13]     packing[7]  102
    x[13]     packing[8]  120
    x[13]     packing[9]  88
    x[13]     packing[10]  83
    x[13]     packing[12]  88
    x[13]     packing[14]  101
    x[13]     packing[15]  158
    x[13]     packing[16]  59
    x[13]     packing[18]  10
    x[13]     packing[19]  51
    x[13]     packing[24]  83
    x[13]     packing[25]  121
    x[13]     packing[26]  51
    x[13]     packing[28]  19
    x[13]     packing[29]  104
    x[13]     packing[30]  64
    x[13]     packing[31]  51
    x[13]     packing[33]  70
    x[13]     packing[34]  107
    x[13]     packing[35]  15
    x[13]     packing[36]  6
    x[13]     packing[37]  115
    x[13]     packing[38]  15
    x[13]     packing[40]  159
    x[13]     packing[41]  160
    x[13]     packing[45]  114
    x[13]     packing[46]  100
    x[13]     packing[47]  158
    x[13]     packing[48]  142
    x[13]     packing[49]  170
    x[14]     OBJ       79
    x[14]     packing[1]  46
    x[14]     packing[3]  11
    x[14]     packing[4]  20
    x[14]     packing[7]  20
    x[14]     packing[9]  22
    x[14]     packing[11]  93
    x[14]     packing[12]  25
    x[14]     packing[13]  9
    x[14]     packing[14]  177
    x[14]     packing[15]  101
    x[14]     packing[16]  97
    x[14]     packing[17]  103
    x[14]     packing[18]  73
    x[14]     packing[19]  166
    x[14]     packing[22]  37
    x[14]     packing[23]  69
    x[14]     packing[24]  43
    x[14]     packing[26]  170
    x[14]     packing[28]  108
    x[14]     packing[29]  93
    x[14]     packing[32]  144
    x[14]     packing[33]  86
    x[14]     packing[35]  198
    x[14]     packing[36]  151
    x[14]     packing[37]  196
    x[14]     packing[38]  66
    x[14]     packing[41]  12
    x[14]     packing[42]  156
    x[14]     packing[46]  144
    x[14]     packing[47]  73
    x[14]     packing[49]  133
    x[15]     OBJ       5
    x[15]     packing[0]  134
    x[15]     packing[2]  161
    x[15]     packing[4]  9
    x[15]     packing[5]  143
    x[15]     packing[6]  59
    x[15]     packing[9]  182
    x[15]     packing[11]  156
    x[15]     packing[12]  9
    x[15]     packing[13]  44
    x[15]     packing[15]  193
    x[15]     packing[16]  176
    x[15]     packing[17]  36
    x[15]     packing[20]  45
    x[15]     packing[21]  67
    x[15]     packing[22]  95
    x[15]     packing[24]  195
    x[15]     packing[25]  177
    x[15]     packing[26]  158
    x[15]     packing[27]  189
    x[15]     packing[28]  154
    x[15]     packing[29]  160
    x[15]     packing[30]  123
    x[15]     packing[31]  163
    x[15]     packing[32]  130
    x[15]     packing[33]  14
    x[15]     packing[34]  183
    x[15]     packing[35]  48
    x[15]     packing[36]  56
    x[15]     packing[37]  165
    x[15]     packing[38]  184
    x[15]     packing[39]  69
    x[15]     packing[40]  101
    x[15]     packing[41]  192
    x[15]     packing[42]  54
    x[15]     packing[43]  162
    x[15]     packing[44]  98
    x[15]     packing[45]  45
    x[15]     packing[46]  173
    x[15]     packing[48]  30
    x[15]     packing[49]  94
    x[16]     OBJ       147
    x[16]     packing[1]  8
    x[16]     packing[2]  65
    x[16]     packing[3]  56
    x[16]     packing[4]  102
    x[16]     packing[6]  88
    x[16]     packing[7]  15
    x[16]     packing[11]  76
    x[16]     packing[13]  73
    x[16]     packing[16]  13
    x[16]     packing[17]  79
    x[16]     packing[18]  166
    x[16]     packing[19]  26
    x[16]     packing[22]  62
    x[16]     packing[23]  36
    x[16]     packing[25]  123
    x[16]     packing[26]  197
    x[16]     packing[27]  82
    x[16]     packing[28]  161
    x[16]     packing[29]  168
    x[16]     packing[32]  147
    x[16]     packing[33]  123
    x[16]     packing[34]  128
    x[16]     packing[35]  9
    x[16]     packing[36]  120
    x[16]     packing[37]  2
    x[16]     packing[41]  33
    x[16]     packing[42]  15
    x[16]     packing[43]  100
    x[16]     packing[45]  162
    x[16]     packing[46]  4
    x[16]     packing[47]  179
    x[16]     packing[48]  97
    x[16]     R55       1
    x[17]     OBJ       61
    x[17]     packing[0]  166
    x[17]     packing[1]  20
    x[17]     packing[2]  58
    x[17]     packing[3]  197
    x[17]     packing[4]  15
    x[17]     packing[5]  11
    x[17]     packing[6]  171
    x[17]     packing[7]  22
    x[17]     packing[8]  38
    x[17]     packing[10]  35
    x[17]     packing[11]  140
    x[17]     packing[13]  85
    x[17]     packing[14]  156
    x[17]     packing[15]  183
    x[17]     packing[16]  25
    x[17]     packing[18]  29
    x[17]     packing[19]  70
    x[17]     packing[20]  69
    x[17]     packing[21]  14
    x[17]     packing[22]  45
    x[17]     packing[23]  132
    x[17]     packing[25]  108
    x[17]     packing[26]  98
    x[17]     packing[28]  2
    x[17]     packing[29]  22
    x[17]     packing[30]  96
    x[17]     packing[31]  32
    x[17]     packing[32]  172
    x[17]     packing[33]  170
    x[17]     packing[34]  127
    x[17]     packing[36]  108
    x[17]     packing[38]  38
    x[17]     packing[40]  50
    x[17]     packing[41]  2
    x[17]     packing[42]  4
    x[17]     packing[43]  137
    x[17]     packing[44]  137
    x[17]     packing[45]  118
    x[17]     packing[47]  57
    x[18]     OBJ       53
    x[18]     packing[0]  116
    x[18]     packing[1]  10
    x[18]     packing[2]  145
    x[18]     packing[3]  150
    x[18]     packing[4]  74
    x[18]     packing[5]  149
    x[18]     packing[6]  84
    x[18]     packing[7]  14
    x[18]     packing[10]  24
    x[18]     packing[11]  58
    x[18]     packing[13]  119
    x[18]     packing[14]  170
    x[18]     packing[17]  152
    x[18]     packing[18]  135
    x[18]     packing[19]  22
    x[18]     packing[21]  54
    x[18]     packing[22]  79
    x[18]     packing[23]  116
    x[18]     packing[24]  129
    x[18]     packing[25]  171
    x[18]     packing[27]  46
    x[18]     packing[28]  42
    x[18]     packing[30]  17
    x[18]     packing[31]  135
    x[18]     packing[33]  67
    x[18]     packing[34]  128
    x[18]     packing[36]  161
    x[18]     packing[37]  192
    x[18]     packing[38]  154
    x[18]     packing[39]  36
    x[18]     packing[40]  3
    x[18]     packing[41]  184
    x[18]     packing[42]  31
    x[18]     packing[43]  72
    x[18]     packing[44]  165
    x[18]     packing[45]  105
    x[18]     packing[47]  67
    x[18]     packing[48]  120
    x[18]     packing[49]  122
    x[19]     OBJ       111
    x[19]     packing[2]  133
    x[19]     packing[3]  55
    x[19]     packing[4]  29
    x[19]     packing[5]  55
    x[19]     packing[7]  72
    x[19]     packing[9]  127
    x[19]     packing[10]  11
    x[19]     packing[11]  175
    x[19]     packing[13]  87
    x[19]     packing[15]  163
    x[19]     packing[16]  122
    x[19]     packing[17]  48
    x[19]     packing[19]  86
    x[19]     packing[21]  61
    x[19]     packing[23]  172
    x[19]     packing[25]  118
    x[19]     packing[26]  105
    x[19]     packing[29]  94
    x[19]     packing[30]  33
    x[19]     packing[31]  63
    x[19]     packing[32]  140
    x[19]     packing[33]  132
    x[19]     packing[34]  33
    x[19]     packing[35]  9
    x[19]     packing[36]  25
    x[19]     packing[37]  1
    x[19]     packing[39]  142
    x[19]     packing[40]  166
    x[19]     packing[41]  125
    x[19]     packing[42]  154
    x[19]     packing[44]  117
    x[19]     packing[45]  151
    x[19]     packing[46]  93
    x[19]     packing[48]  2
    x[19]     R55       1
    x[20]     OBJ       184
    x[20]     packing[0]  101
    x[20]     packing[1]  110
    x[20]     packing[2]  196
    x[20]     packing[3]  121
    x[20]     packing[4]  176
    x[20]     packing[5]  11
    x[20]     packing[6]  102
    x[20]     packing[7]  189
    x[20]     packing[8]  51
    x[20]     packing[9]  101
    x[20]     packing[10]  123
    x[20]     packing[11]  109
    x[20]     packing[12]  115
    x[20]     packing[13]  63
    x[20]     packing[14]  131
    x[20]     packing[15]  153
    x[20]     packing[16]  171
    x[20]     packing[17]  189
    x[20]     packing[18]  29
    x[20]     packing[19]  1
    x[20]     packing[20]  145
    x[20]     packing[22]  88
    x[20]     packing[23]  91
    x[20]     packing[25]  41
    x[20]     packing[26]  65
    x[20]     packing[27]  57
    x[20]     packing[28]  169
    x[20]     packing[32]  29
    x[20]     packing[34]  32
    x[20]     packing[37]  174
    x[20]     packing[38]  52
    x[20]     packing[40]  18
    x[20]     packing[41]  80
    x[20]     packing[42]  33
    x[20]     packing[45]  74
    x[20]     packing[46]  63
    x[20]     packing[47]  45
    x[20]     packing[48]  186
    x[20]     packing[49]  25
    x[20]     R55       1
    MARKER    'MARKER'                 'INTEND'
RHS
    RHS1      packing[0]  804
    RHS1      packing[1]  316
    RHS1      packing[2]  770
    RHS1      packing[3]  773
    RHS1      packing[4]  699
    RHS1      packing[5]  617
    RHS1      packing[6]  808
    RHS1      packing[7]  684
    RHS1      packing[8]  572
    RHS1      packing[9]  839
    RHS1      packing[10]  391
    RHS1      packing[11]  879
    RHS1      packing[12]  595
    RHS1      packing[13]  544
    RHS1      packing[14]  808
    RHS1      packing[15]  837
    RHS1      packing[16]  697
    RHS1      packing[17]  707
    RHS1      packing[18]  734
    RHS1      packing[19]  857
    RHS1      packing[20]  284
    RHS1      packing[21]  505
    RHS1      packing[22]  579
    RHS1      packing[23]  717
    RHS1      packing[24]  594
    RHS1      packing[25]  928
    RHS1      packing[26]  922
    RHS1      packing[27]  658
    RHS1      packing[28]  889
    RHS1      packing[29]  853
    RHS1      packing[30]  806
    RHS1      packing[31]  812
    RHS1      packing[32]  931
    RHS1      packing[33]  703
    RHS1      packing[34]  858
    RHS1      packing[35]  681
    RHS1      packing[36]  730
    RHS1      packing[37]  953
    RHS1      packing[38]  849
    RHS1      packing[39]  514
    RHS1      packing[40]  622
    RHS1      packing[41]  783
    RHS1      packing[42]  692
    RHS1      packing[43]  780
    RHS1      packing[44]  683
    RHS1      packing[45]  851
    RHS1      packing[46]  686
    RHS1      packing[47]  641
    RHS1      packing[48]  984
    RHS1      packing[49]  497
    RHS1      R55       6
BOUNDS
 BV BND1      x[1]    
 BV BND1      x[2]    
 BV BND1      x[3]    
 BV BND1      x[4]    
 BV BND1      x[5]    
 BV BND1      x[6]    
 BV BND1      x[7]    
 BV BND1      x[8]    
 BV BND1      x[9]    
 BV BND1      x[10]   
 BV BND1      x[11]   
 BV BND1      x[12]   
 BV BND1      x[13]   
 BV BND1      x[14]   
 BV BND1      x[15]   
 BV BND1      x[16]   
 BV BND1      x[17]   
 BV BND1      x[18]   
 BV BND1      x[19]   
 BV BND1      x[20]   
ENDATA
